50

97 41 309
95 1 297
92 1 279
91 33 435
90 16 412
90 27 450
86 39 330
85 9 317
85 30 421
82 9 410
82 35 260
81 17 273
80 38 401
79 23 351
78 28 259
76 11 349
71 32 342
70 11 373
69 2 373
67 34 381
63 20 261
63 9 276
63 7 424
62 5 441
58 29 383
58 20 425
56 1 265
55 10 419
54 27 379
53 14 339
52 13 427
51 11 417
51 1 426
48 6 344
47 13 359
46 2 288
44 4 175
44 10 427
42 20 446
42 8 307
41 4 210
40 19 241
39 2 306
39 8 399
37 17 188
35 17 111
34 12 270
32 2 366
31 1 381
31 3 316
